\ Model Original
\ LP format - for model browsing. Use MPS format to capture full model detail.
Minimize
  2 y[0] + 2 y[1] + 2 y[2] + 2 y[3] + 2 y[4] + 2 y[5] + 2 y[6] + 2 y[7]
   + 2 y[8] + 2 y[9] + 2 y[10] + 2 y[11] + 2 y[12] + 2 y[13] + 2 y[14]
   + 2 y[15] + 2 y[16] + 2 y[17] + 2 y[18] + 2 y[19] + 3 z[0] + 3 z[1]
   + 3 z[2] + 3 z[3] + 3 z[4] + 3 z[5] + 3 z[6] + 3 z[7] + 3 z[8] + 3 z[9]
   + 3 z[10] + 3 z[11] + 3 z[12] + 3 z[13] + 3 z[14] + 3 z[15] + 3 z[16]
   + 3 z[17] + 3 z[18] + 3 z[19]
Subject To
 main_constr_yz: y[0] + y[1] + y[2] + y[3] + y[4] + y[5] + y[6] + y[7]
   + y[8] + y[9] + y[10] + y[11] + y[12] + y[13] + y[14] + y[15] + y[16]
   + y[17] + y[18] + y[19] + z[0] + z[1] + z[2] + z[3] + z[4] + z[5] + z[6]
   + z[7] + z[8] + z[9] + z[10] + z[11] + z[12] + z[13] + z[14] + z[15]
   + z[16] + z[17] + z[18] + z[19] <= 1000
 constr_y[0]: 2 y[0] <= 2
 constr_y[1]: 2 y[1] <= 4
 constr_y[2]: 2 y[2] <= 6
 constr_y[3]: 2 y[3] <= 8
 constr_y[4]: 2 y[4] <= 10
 constr_y[5]: 2 y[5] <= 12
 constr_y[6]: 2 y[6] <= 14
 constr_y[7]: 2 y[7] <= 16
 constr_y[8]: 2 y[8] <= 18
 constr_y[9]: 2 y[9] <= 20
 constr_y[10]: 2 y[10] <= 22
 constr_y[11]: 2 y[11] <= 24
 constr_y[12]: 2 y[12] <= 26
 constr_y[13]: 2 y[13] <= 28
 constr_y[14]: 2 y[14] <= 30
 constr_y[15]: 2 y[15] <= 32
 constr_y[16]: 2 y[16] <= 34
 constr_y[17]: 2 y[17] <= 36
 constr_y[18]: 2 y[18] <= 38
 constr_y[19]: 2 y[19] <= 40
 constr_yz[0]: 2 y[0] + z[0] >= 0
 constr_yz[1]: 2 y[1] + z[1] >= 1
 constr_yz[2]: 2 y[2] + z[2] >= 2
 constr_yz[3]: 2 y[3] + z[3] >= 3
 constr_yz[4]: 2 y[4] + z[4] >= 4
 constr_yz[5]: 2 y[5] + z[5] >= 5
 constr_yz[6]: 2 y[6] + z[6] >= 6
 constr_yz[7]: 2 y[7] + z[7] >= 7
 constr_yz[8]: 2 y[8] + z[8] >= 8
 constr_yz[9]: 2 y[9] + z[9] >= 9
 constr_yz[10]: 2 y[10] + z[10] >= 10
 constr_yz[11]: 2 y[11] + z[11] >= 11
 constr_yz[12]: 2 y[12] + z[12] >= 12
 constr_yz[13]: 2 y[13] + z[13] >= 13
 constr_yz[14]: 2 y[14] + z[14] >= 14
 constr_yz[15]: 2 y[15] + z[15] >= 15
 constr_yz[16]: 2 y[16] + z[16] >= 16
 constr_yz[17]: 2 y[17] + z[17] >= 17
 constr_yz[18]: 2 y[18] + z[18] >= 18
 constr_yz[19]: 2 y[19] + z[19] >= 19
 constr_z[0]: 3 z[0] <= 15
 constr_z[1]: 3 z[1] <= 15
 constr_z[2]: 3 z[2] <= 15
 constr_z[3]: 3 z[3] <= 15
 constr_z[4]: 3 z[4] <= 15
 constr_z[5]: 3 z[5] <= 15
 constr_z[6]: 3 z[6] <= 15
 constr_z[7]: 3 z[7] <= 15
 constr_z[8]: 3 z[8] <= 15
 constr_z[9]: 3 z[9] <= 15
 constr_z[10]: 3 z[10] <= 15
 constr_z[11]: 3 z[11] <= 15
 constr_z[12]: 3 z[12] <= 15
 constr_z[13]: 3 z[13] <= 15
 constr_z[14]: 3 z[14] <= 15
 constr_z[15]: 3 z[15] <= 15
 constr_z[16]: 3 z[16] <= 15
 constr_z[17]: 3 z[17] <= 15
 constr_z[18]: 3 z[18] <= 15
 constr_z[19]: 3 z[19] <= 15
Bounds
 1 <= y[0] <= 40
 1 <= y[1] <= 40
 1 <= y[2] <= 40
 1 <= y[3] <= 40
 1 <= y[4] <= 40
 1 <= y[5] <= 40
 1 <= y[6] <= 40
 1 <= y[7] <= 40
 1 <= y[8] <= 40
 1 <= y[9] <= 40
 1 <= y[10] <= 40
 1 <= y[11] <= 40
 1 <= y[12] <= 40
 1 <= y[13] <= 40
 1 <= y[14] <= 40
 1 <= y[15] <= 40
 1 <= y[16] <= 40
 1 <= y[17] <= 40
 1 <= y[18] <= 40
 1 <= y[19] <= 40
 1 <= z[0] <= 40
 1 <= z[1] <= 40
 1 <= z[2] <= 40
 1 <= z[3] <= 40
 1 <= z[4] <= 40
 1 <= z[5] <= 40
 1 <= z[6] <= 40
 1 <= z[7] <= 40
 1 <= z[8] <= 40
 1 <= z[9] <= 40
 1 <= z[10] <= 40
 1 <= z[11] <= 40
 1 <= z[12] <= 40
 1 <= z[13] <= 40
 1 <= z[14] <= 40
 1 <= z[15] <= 40
 1 <= z[16] <= 40
 1 <= z[17] <= 40
 1 <= z[18] <= 40
 1 <= z[19] <= 40
Generals
 y[0] y[1] y[2] y[3] y[4] y[5] y[6] y[7] y[8] y[9] y[10] y[11] y[12] y[13]
 y[14] y[15] y[16] y[17] y[18] y[19]
End
